%SETS
JOBS     = 1..20;
MACHINES = 1..10;
SPEED    = 5;

time        = array3d(JOBS,MACHINES,1..SPEED,[4, 1, 1, 1, 1, 54, 18, 13, 11, 9, 78, 26, 19, 15, 14, 1, 1, 1, 1, 1, 31, 10, 7, 6, 5, 22, 7, 5, 4, 3, 59, 20, 14, 12, 10, 28, 9, 6, 5, 5, 20, 7, 5, 4, 3, 31, 10, 7, 6, 5, 12, 4, 3, 2, 2, 30, 10, 7, 6, 5, 45, 15, 11, 9, 8, 16, 5, 3, 3, 2, 73, 25, 17, 14, 13, 42, 14, 10, 8, 7, 105, 36, 25, 21, 19, 4, 1, 1, 1, 1, 19, 6, 4, 3, 3, 75, 26, 18, 15, 13, 27, 9, 6, 5, 4, 51, 17, 12, 10, 9, 91, 31, 22, 18, 16, 5, 1, 1, 1, 1, 7, 2, 1, 1, 1, 53, 18, 13, 10, 9, 61, 21, 15, 12, 11, 36, 12, 9, 7, 6, 11, 3, 2, 2, 1, 16, 5, 3, 3, 2, 24, 8, 5, 4, 4, 17, 6, 4, 3, 3, 16, 5, 4, 3, 3, 14, 5, 3, 3, 2, 52, 18, 12, 10, 9, 5, 1, 1, 1, 1, 30, 10, 7, 6, 5, 31, 10, 7, 6, 5, 67, 23, 16, 13, 12, 1, 1, 1, 1, 1, 26, 9, 6, 5, 4, 26, 9, 6, 5, 4, 16, 5, 3, 3, 2, 1, 1, 1, 1, 1, 1, 1, 1, 1, 1, 4, 1, 1, 1, 1, 40, 14, 10, 8, 7, 4, 1, 1, 1, 1, 3, 1, 1, 1, 1, 11, 3, 2, 2, 2, 17, 5, 4, 3, 3, 30, 10, 7, 6, 5, 41, 14, 10, 8, 7, 8, 2, 1, 1, 1, 62, 21, 15, 12, 11, 1, 1, 1, 1, 1, 12, 4, 2, 2, 2, 5, 1, 1, 1, 1, 10, 3, 2, 2, 1, 15, 5, 3, 3, 2, 17, 6, 4, 3, 3, 13, 4, 3, 2, 2, 6, 2, 1, 1, 1, 6, 2, 1, 1, 1, 6, 2, 1, 1, 1, 33, 11, 8, 6, 6, 13, 4, 3, 2, 2, 22, 7, 5, 4, 4, 17, 6, 4, 3, 3, 14, 5, 3, 2, 2, 34, 11, 8, 6, 6, 21, 7, 5, 4, 3, 9, 3, 2, 1, 1, 91, 31, 22, 18, 16, 6, 2, 1, 1, 1, 3, 1, 1, 1, 1, 24, 8, 6, 5, 4, 17, 6, 4, 3, 3, 5, 1, 1, 1, 1, 2, 1, 1, 1, 1, 20, 6, 4, 4, 3, 8, 3, 2, 1, 1, 2, 1, 1, 1, 1, 17, 6, 4, 3, 3, 25, 8, 6, 5, 4, 1, 1, 1, 1, 1, 17, 6, 4, 3, 3, 2, 1, 1, 1, 1, 40, 14, 9, 8, 7, 36, 12, 8, 7, 6, 7, 2, 1, 1, 1, 2, 1, 1, 1, 1, 64, 22, 15, 13, 11, 18, 6, 4, 3, 3, 3, 1, 1, 1, 1, 3, 1, 1, 1, 1, 47, 16, 11, 9, 8, 20, 7, 5, 4, 3, 7, 2, 1, 1, 1, 22, 7, 5, 4, 3, 9, 3, 2, 1, 1, 40, 14, 9, 8, 7, 17, 6, 4, 3, 3, 86, 30, 21, 17, 15, 19, 6, 4, 3, 3, 60, 20, 14, 12, 10, 7, 2, 1, 1, 1, 19, 6, 4, 3, 3, 18, 6, 4, 3, 3, 43, 14, 10, 8, 7, 1, 1, 1, 1, 1, 46, 16, 11, 9, 8, 42, 14, 10, 8, 7, 13, 4, 3, 2, 2, 1, 1, 1, 1, 1, 37, 13, 9, 7, 6, 29, 10, 7, 5, 5, 65, 22, 15, 13, 11, 21, 7, 5, 4, 3, 88, 30, 21, 18, 15, 9, 3, 2, 1, 1, 10, 3, 2, 2, 1, 33, 11, 8, 6, 6, 31, 10, 7, 6, 5, 33, 11, 8, 6, 6, 58, 20, 14, 11, 10, 32, 11, 7, 6, 5, 29, 10, 7, 6, 5, 47, 16, 11, 9, 8, 26, 9, 6, 5, 4, 9, 3, 2, 1, 1, 45, 15, 11, 9, 8, 7, 2, 1, 1, 1, 31, 10, 7, 6, 5, 19, 6, 4, 4, 3, 12, 4, 3, 2, 2, 5, 1, 1, 1, 1, 56, 19, 13, 11, 10, 2, 1, 1, 1, 1, 42, 14, 10, 8, 7, 29, 10, 7, 6, 5, 16, 5, 3, 3, 2, 28, 9, 6, 5, 5, 8, 2, 2, 1, 1, 51, 17, 12, 10, 9, 5, 1, 1, 1, 1, 22, 7, 5, 4, 4, 16, 5, 3, 3, 2, 28, 9, 7, 5, 5, 16, 5, 4, 3, 3, 78, 27, 19, 16, 14, 49, 17, 12, 10, 8, 59, 20, 14, 12, 10, 1, 1, 1, 1, 1, 4, 1, 1, 1, 1, 16, 5, 4, 3, 3, 34, 11, 8, 6, 6, 11, 3, 2, 2, 2, 21, 7, 5, 4, 3, 1, 1, 1, 1, 1, 26, 9, 6, 5, 4, 29, 10, 7, 6, 5, 13, 4, 3, 2, 2, 3, 1, 1, 1, 1, 13, 4, 3, 2, 2, 34, 11, 8, 7, 6, 22, 7, 5, 4, 4, 55, 19, 13, 11, 10, 22, 7, 5, 4, 4, 5, 1, 1, 1, 1, 23, 8, 5, 4, 4, 1, 1, 1, 1, 1, 35, 12, 8, 7, 6, 5, 2, 1, 1, 1, 60, 21, 14, 12, 10, 16, 5, 4, 3, 2, 15, 5, 3, 3, 2, 3, 1, 1, 1, 1, 42, 14, 10, 8, 7, 64, 22, 15, 13, 11, 30, 10, 7, 6, 5, 28, 9, 6, 5, 5, 31, 10, 7, 6, 5, 35, 12, 8, 7, 6, 32, 11, 7, 6, 5, 3, 1, 1, 1, 1, 28, 9, 6, 5, 5, 62, 21, 15, 12, 11, 1, 1, 1, 1, 1, 5, 1, 1, 1, 1, 37, 12, 9, 7, 6, 1, 1, 1, 1, 1, 8, 2, 2, 1, 1, 50, 17, 12, 10, 9, 11, 4, 2, 2, 2, 59, 20, 14, 12, 10, 8, 3, 2, 1, 1, 12, 4, 3, 2, 2, 2, 1, 1, 1, 1, 43, 15, 10, 8, 7]);
energy      = array3d(JOBS,MACHINES,1..SPEED,[96, 99, 99, 99, 99, 58, 83, 87, 89, 91, 45, 77, 82, 86, 86, 99, 99, 99, 99, 99, 73, 90, 93, 94, 95, 80, 93, 95, 96, 97, 55, 81, 86, 88, 90, 75, 91, 94, 95, 95, 81, 93, 95, 96, 97, 73, 90, 93, 94, 95, 88, 96, 97, 98, 98, 74, 90, 93, 94, 95, 63, 86, 89, 91, 92, 85, 95, 97, 97, 98, 48, 77, 84, 86, 87, 65, 86, 90, 92, 93, 34, 69, 77, 81, 82, 96, 99, 99, 99, 99, 82, 94, 96, 97, 97, 47, 77, 83, 86, 87, 76, 91, 94, 95, 96, 60, 84, 88, 90, 91, 40, 73, 80, 83, 85, 95, 99, 99, 99, 99, 93, 98, 99, 99, 99, 58, 83, 87, 90, 91, 54, 81, 86, 88, 89, 69, 88, 91, 93, 94, 89, 97, 98, 98, 99, 85, 95, 97, 97, 98, 78, 92, 95, 96, 96, 84, 94, 96, 97, 97, 85, 95, 96, 97, 97, 86, 95, 97, 97, 98, 59, 83, 88, 90, 91, 95, 99, 99, 99, 99, 74, 90, 93, 94, 95, 73, 90, 93, 94, 95, 51, 79, 85, 87, 88, 99, 99, 99, 99, 99, 77, 91, 94, 95, 96, 77, 91, 94, 95, 96, 85, 95, 97, 97, 98, 99, 99, 99, 99, 99, 99, 99, 99, 99, 99, 96, 99, 99, 99, 99, 67, 86, 90, 92, 93, 96, 99, 99, 99, 99, 97, 99, 99, 99, 99, 89, 97, 98, 98, 98, 84, 95, 96, 97, 97, 74, 90, 93, 94, 95, 66, 86, 90, 92, 93, 92, 98, 99, 99, 99, 53, 81, 86, 88, 89, 99, 99, 99, 99, 99, 88, 96, 98, 98, 98, 95, 99, 99, 99, 99, 90, 97, 98, 98, 99, 86, 95, 97, 97, 98, 84, 94, 96, 97, 97, 87, 96, 97, 98, 98, 94, 98, 99, 99, 99, 94, 98, 99, 99, 99, 94, 98, 99, 99, 99, 71, 89, 92, 94, 94, 87, 96, 97, 98, 98, 80, 93, 95, 96, 96, 84, 94, 96, 97, 97, 86, 95, 97, 98, 98, 71, 89, 92, 94, 94, 81, 93, 95, 96, 97, 91, 97, 98, 99, 99, 40, 73, 80, 83, 85, 94, 98, 99, 99, 99, 97, 99, 99, 99, 99, 78, 92, 94, 95, 96, 84, 94, 96, 97, 97, 95, 99, 99, 99, 99, 98, 99, 99, 99, 99, 81, 94, 96, 96, 97, 92, 97, 98, 99, 99, 98, 99, 99, 99, 99, 84, 94, 96, 97, 97, 77, 92, 94, 95, 96, 99, 99, 99, 99, 99, 84, 94, 96, 97, 97, 98, 99, 99, 99, 99, 67, 86, 91, 92, 93, 69, 88, 92, 93, 94, 93, 98, 99, 99, 99, 98, 99, 99, 99, 99, 52, 80, 86, 87, 89, 83, 94, 96, 97, 97, 97, 99, 99, 99, 99, 97, 99, 99, 99, 99, 62, 85, 89, 91, 92, 81, 93, 95, 96, 97, 93, 98, 99, 99, 99, 80, 93, 95, 96, 97, 91, 97, 98, 99, 99, 67, 86, 91, 92, 93, 84, 94, 96, 97, 97, 42, 74, 81, 84, 86, 82, 94, 96, 97, 97, 54, 81, 86, 88, 90, 93, 98, 99, 99, 99, 82, 94, 96, 97, 97, 83, 94, 96, 97, 97, 65, 86, 90, 92, 93, 99, 99, 99, 99, 99, 63, 85, 89, 91, 92, 65, 86, 90, 92, 93, 87, 96, 97, 98, 98, 99, 99, 99, 99, 99, 69, 87, 91, 93, 94, 74, 90, 93, 95, 95, 52, 80, 86, 87, 89, 81, 93, 95, 96, 97, 41, 74, 81, 83, 86, 91, 97, 98, 99, 99, 90, 97, 98, 98, 99, 71, 89, 92, 94, 94, 73, 90, 93, 94, 95, 71, 89, 92, 94, 94, 55, 81, 86, 89, 90, 72, 89, 93, 94, 95, 74, 90, 93, 94, 95, 62, 85, 89, 91, 92, 77, 91, 94, 95, 96, 91, 97, 98, 99, 99, 63, 86, 89, 91, 92, 93, 98, 99, 99, 99, 73, 90, 93, 94, 95, 82, 94, 96, 96, 97, 88, 96, 97, 98, 98, 95, 99, 99, 99, 99, 57, 82, 87, 89, 90, 98, 99, 99, 99, 99, 65, 86, 90, 92, 93, 74, 90, 93, 94, 95, 85, 95, 97, 97, 98, 75, 91, 94, 95, 95, 92, 98, 98, 99, 99, 60, 84, 88, 90, 91, 95, 99, 99, 99, 99, 80, 93, 95, 96, 96, 85, 95, 97, 97, 98, 75, 91, 93, 95, 95, 85, 95, 96, 97, 97, 45, 76, 82, 85, 86, 61, 84, 88, 90, 92, 55, 81, 86, 88, 90, 99, 99, 99, 99, 99, 96, 99, 99, 99, 99, 85, 95, 96, 97, 97, 71, 89, 92, 94, 94, 89, 97, 98, 98, 98, 81, 93, 95, 96, 97, 99, 99, 99, 99, 99, 77, 91, 94, 95, 96, 74, 90, 93, 94, 95, 87, 96, 97, 98, 98, 97, 99, 99, 99, 99, 87, 96, 97, 98, 98, 71, 89, 92, 93, 94, 80, 93, 95, 96, 96, 57, 82, 87, 89, 90, 80, 93, 95, 96, 96, 95, 99, 99, 99, 99, 79, 92, 95, 96, 96, 99, 99, 99, 99, 99, 70, 88, 92, 93, 94, 95, 98, 99, 99, 99, 54, 81, 86, 88, 90, 85, 95, 96, 97, 98, 86, 95, 97, 97, 98, 97, 99, 99, 99, 99, 65, 86, 90, 92, 93, 52, 80, 86, 87, 89, 74, 90, 93, 94, 95, 75, 91, 94, 95, 95, 73, 90, 93, 94, 95, 70, 88, 92, 93, 94, 72, 89, 93, 94, 95, 97, 99, 99, 99, 99, 75, 91, 94, 95, 95, 53, 81, 86, 88, 89, 99, 99, 99, 99, 99, 95, 99, 99, 99, 99, 69, 88, 91, 93, 94, 99, 99, 99, 99, 99, 92, 98, 98, 99, 99, 60, 84, 88, 90, 91, 89, 96, 98, 98, 98, 55, 81, 86, 88, 90, 92, 97, 98, 99, 99, 88, 96, 97, 98, 98, 98, 99, 99, 99, 99, 65, 86, 90, 92, 93]);
precedence  = array2d(JOBS,MACHINES,[7, 5, 4, 9, 3, 0, 2, 6, 1, 8, 3, 9, 7, 5, 4, 1, 6, 8, 2, 0, 6, 9, 0, 1, 5, 8, 3, 7, 4, 2, 6, 2, 8, 5, 7, 3, 0, 4, 1, 9, 4, 3, 0, 6, 1, 9, 2, 5, 7, 8, 4, 8, 0, 7, 3, 6, 5, 9, 2, 1, 0, 3, 9, 6, 7, 1, 5, 4, 2, 8, 3, 2, 8, 4, 0, 1, 9, 6, 7, 5, 1, 6, 4, 3, 9, 2, 0, 8, 5, 7, 0, 6, 7, 8, 5, 2, 9, 1, 3, 4, 6, 5, 8, 9, 3, 2, 7, 0, 4, 1, 9, 0, 1, 4, 5, 7, 2, 3, 6, 8, 2, 9, 5, 8, 3, 1, 6, 4, 7, 0, 7, 1, 4, 5, 8, 2, 9, 3, 0, 6, 0, 4, 7, 6, 9, 1, 3, 5, 8, 2, 8, 2, 7, 9, 3, 1, 0, 5, 6, 4, 8, 3, 9, 0, 4, 5, 7, 2, 6, 1, 9, 5, 2, 7, 3, 4, 6, 1, 8, 0, 9, 7, 1, 8, 6, 0, 5, 2, 3, 4, 1, 9, 4, 6, 8, 3, 2, 7, 0, 5]);
releaseDate = [90, 70, 30, 40, 40, 20, 70, 0, 80, 50, 80, 100, 40, 20, 10, 70, 40, 0, 70, 50];
dueDate     = [218, 210, 169, 115, 87, 83, 109, 59, 126, 91, 149, 230, 197, 87, 83, 158, 122, 82, 127, 124];